
ACE v2.1 

  instance
    name:PyCSP

  Loading variables...

  Loading constraints...

  domains
    types:1  values:540  sizes:[6:90]
  variables
    count:90  arrays:1  degrees:[71:4,72:38,73:48]
  constraints
    count:1556  specific:26  groups:2  arities:[4:1530,10:17,18:5,36:4]
    distribution:[Cardinality:5,ConstraintIntension:1530,LexicographicLE:21]
    intStructures:(1,shared:1529)
    wck:1.70  cpu:2.062  mem:73M732

  Building solver... 

  solver
    guaranteedAC:true
    wck:1.87  cpu:2.14  mem:76M877

  preprocessing
    revisions:(6120,useless=6120)  values:540  unsat:false
    wck:0.119  cpu:2.171  mem:76M877

    run0  dpts:40..57  effs:224  fails:10  wrgs:19  wck:0.00  ngds:6
    run1  dpts:5..7  effs:362  fails:21  wrgs:32  wck:0.33  ngds:8
    run2  dpts:0..12  effs:532  fails:33  wrgs:45  wck:0.35  ngds:12
    run3  dpts:0..13  effs:725  fails:46  wrgs:60  wck:0.38  ngds:18
    run4  dpts:0..21  effs:850  fails:60  wrgs:74  wck:0.43  ngds:29
    run5  dpts:0..16  effs:1094  fails:76  wrgs:103  wck:0.45  ngds:29
    run6  dpts:0..49  effs:1368  fails:93  wrgs:128  wck:0.47  ngds:37
    run7  dpts:2..89  effs:1626  fails:104  wrgs:141  wck:0.52  ngds:37  sols:1

  global
    effs:1626  revisions:(301082,useless=300378)  ngds:37
    stop:REACHED_GOAL  wrgs:141  sols:1  sol1Cpu:2.375
    wck:2.43  cpu:2.375  mem:77M926


  Solution 1 in JSON format:
   {
    x: [
     [0, 0, 0, 1, 1, 1, 2, 2, 2, 3, 3, 3, 4, 4, 4, 5, 5, 5],
     [0, 1, 3, 0, 2, 4, 1, 3, 5, 2, 4, 5, 0, 1, 2, 3, 4, 5],
     [3, 0, 2, 4, 1, 5, 4, 3, 5, 5, 3, 4, 2, 1, 0, 0, 2, 1],
     [3, 4, 5, 4, 5, 3, 5, 1, 0, 1, 0, 2, 2, 3, 0, 2, 1, 4],
     [4, 0, 1, 2, 0, 1, 3, 0, 2, 5, 3, 4, 5, 2, 1, 3, 4, 5]
    ]
   }

s SATISFIABLE

v <instantiation id='sol1' type='solution'> <list> x[][] </list> <values> 0x3 1x3 2x3 3x3 4x3 5x3 0 1 3 0 2 4 1 3 5 2 4 5 0 1 2 3 4 5 3 0 2 4 1 5 4 3 5 5 3 4 2 1 0 0 2 1 3 4 5 4 5 3 5 1 0 1 0 2 2 3 0 2 1 4 4 0 1 2 0 1 3 0 2 5 3 4 5 2 1 3 4 5 </values> </instantiation>

d WRONG DECISIONS 141
d FOUND SOLUTIONS 1
d INCOMPLETE EXPLORATION

c real time : 2.39
